25043 24520 23873 23260 22926 22876 22470 21923 21525 21354 21159 20762 20563 20220 20083 19752 19401 19319 19145 18979 18637 18588 18363 18220 18042 17844 17791 17535 17430 17383 17055 16978 16910 16680 16527 16412 16234 16173 15936 15824 15686 15571 15448 15252 15221 15095 15013 14927 14861 14783 14731 14593 14522 14408 14177 14018 13991 13981 13900 13810 13740 13688 13627 13523 13489 13360 13291 13234 13195 13177 13049 12979 12965 12863 12820 12710 12625 12559 12509 12456 12391 12358 12243 12191 12123 12100 12061 12021 11992 11929 11901 11883 11849 11800 11800 11743 11707 11688 11643 11630 11594 11580 11569 11556 11536 11516 11476 11452 11383 11361 11348 11315 11190 11142 11155 11131 11075 11056 10991 10980 10930 10928 10917 10893 10867 10863 10843 10834 10812 10793 10759 10731 10690 10672 10640 10618 10566 10559 10548 10520 10505 10513 10475 10461 10450 10434 10445 10417 10428 10407 10415 10402 10391 10330 10301 10267 10287 10314 10244 10244 10236 10243 10265 10232 10131 10131 10102 10057 10051 10041 9981 9978 9954 9933 9923 9911 9898 9867 9867 9860 9850 9815 9815 9730 9700 9700 9669 9638 9670 9641 9597 9620 9631 9585 9585 9587 9595 9586 9562 9556 9523 9543 9556 9554 9543 9492 9540 9504 9486 9482 9482 9468 9462 9462 9422 9422 9347 9355 9396 9386 9368 9343 9339 9339 9341 9337 9313 9303 9294 9310 9280 9267 9289 9265 9247 9244 9246 9267 9240 9218 9227 9236 9235 9255 9255 9233 9217 9214 9199 9174 9167 9178 9170 9155 9161 9194 9186 9196 9172 9159 9178 9181 9139 9132 9111 9098 9092 9092 9031 9089 9055 9089 9071 9049 8998 8997 8997 8982 8971 8959 8924 8924 8911 8907 8875 8862 8848 8843 8872 8856 8856 8840 8835 8825 8825 8808 8714 8714 8710 8692 8692 8659 8655 8684 8683 8664 8667 8667 8660 8629 8663 8711 8698 8670 8670 8664 8657 8719 8709 8688 8688 8687 8724 8722 8702 8691 8704 8670 8673 8702 8674 8645 8664 8664 8668 8669 8676 8679 8679 8677 8687 8655 8726 8698 8684 8668 8650 8649 8650 8622 8622 8609 8629 8613 8604 8604 8604 8595 8588 8566 8616 8609 8578 8597 8594 8587 8563 8560 8561 8548 8546 8492 8481 8455 8473 8467 8454 8386 8443 8442 8402 8402 8391 8396 8396 8393 8372 8370 8392 8366 8362 8340 8363 8358 8353 8348 8367 8359 8347 8347 8324 8347 8347 8327 8304 8312 8286 8286 8272 8249 8249 8224 8201 8199 8186 8186 8158 8143 8133 8148 8138 8130 8123 8088 8072 8048 8025 8019 8004 8001 7987 7979 7977 7967 7931 7921 7911 7911 7901 7901 7890 7886 7871 7866 7852 7849 7835 7859 7857 7848 7843 7843 7843 7839 7821 7820 7801 7778 7759 7753 7740 7728 7715 7701 7747 7738 7738 7732 7725 7719 7715 7712 7705 7693 7693 7685 7685 7642 7642 7635 7623 7634 7623 7618 7598 7596 7593 7586 7586 7581 7580 7560 7555 7551 7550 7547 7538 7386 7386 7386 7374 7364 7363 7386 7386 7385 7372 7342 7329 7321 7364 7336 7336 7315 7310 7302 7299 7290 7284 7283 7280 7270 7270 7270 7261 7261 7259 7236 7236 7234 7234 7234 7227 7227 7220 7220 7219 7219 7202 7202 7202 7202 7201 7199 7198 7185 7185 7185 7185 7185 7184 7158 7158 7157 7156 7152 7152 7133 7129 7129 7129 7129 7113 7113 7113 7107 7107 7101 7098 7091 7086 7079 7078 7078 7078 7074 7074 7073 7060 7057 7057 7051 7051 7051 7049 7049 7042 7042 7032 7032 7011 7011 7001 7001 7000 6997 6997 6994 6993 6987 6986 6981 6973 6972 6971 6970 6968 6966 6964 6932 6932 6929 6927 6926 6922 6922 6921 6917 6913 6913 6913 6912 6903 6903 6903 6901 6895 6893 6890 6890 6888 6883 6881 6871 6871 6867 6855 6854 6849 6844 6836 6836 6830 6830 6828 6828 6819 6819 6819 6815 6815 6811 6803 6803 6793 6789 6787 6787 6783 6761 6761 6761 6760 6755 6755 6755 6754 6751 6750 6747 6746 6743 6743 6732 6732 6732 6728 6728 6725 6725 6722 6722 6720 6720 6715 6710 6710 6703 6699 6696 6682 6678 6669 6669 6657 6657 6650 6634 6634 6625 6609 6602 6596 6581 6581 6581 6575 6575 6575 6571 6570 6564 6559 6559 6559 6558 6558 6547 6547 6547 6546 6542 6540 6539 6539 6537 6532 6524 6524 6524 6524 6520 6520 6517 6514 6511 6511 6511 6511 6511 6511 6510 6510 6510 6510 6508 6508 6507 6507 6501 6488 6453 6446 6445 6441 6440 6439 6438 6431 6429 6428 6425 6424 6423 6421 6420 6418 6413 6359 6359 6359 6348 6348 6348 6342 6342 6342 6342 6337 6337 6333 6332 6315 6315 6315 6311 6305 6305 6301 6301 6297 6297 6278 6271 6269 6268 6250 6250 6249 6246 6246 6246 6240 6238 6232 6232 6232 6231 6229 6229 6228 6225 6225 6222 6214 6212 6210 6209 6204 6202 6195 6195 6181 6181 6181 6180 6180 6180 6180 6180 6177 6176 6174 6173 6171 6171 6168 6166 6163 6163 6161 6134 6132 6132 6132 6132 6129 6129 6107 6107 6107 6107 6101 6101 6099 6099 6099 6099 6097 6097 6097 6096 6096 6094 6094 6094 6094 6094 6094 6093 6093 6093 6093 6092 6092 6092 6089 6089 6089 6089 6089 6089 6089 6089 6089 6089 6089 6089 6089 6089 6089 6089 6089 6089 6082 6082 6082 6082 6082 6082 6082 6082 6082 6082 6082 6081 6081 6079 6079 6078 6078 6078 6078 6071 6071 6071 6068 6068 6067 6065 6064 6064 6064 6064 6060 6060 6060 6060 6060 6060 6059 6059 6059 6059 6059 6059 6059 6059 6059 6059 6057 6057 6057 6054 6054 6054 6053 6039 6039 6039 6038 6038 6038 6038 6038 6038 6038 6038 6024 6024 6024 6024 6024 6024 5993 5993 5992 5992 5990 5980 5977 5977 5965 5965 5965 5965 5965 5965 5930 5930 5930 5930 5930 5930 5930 5930 5930 5930 5928 5907 5907 5905 5905 5905 5905 5905 5905 5905 5905 5905 5905 5905 5905 5905 5903 5900 5900 5899 5898 5898 5898 5898 5888 5888 5888 5888 5888 5884 5884 5883 5879 5879 5879 5879 5879 5878 5878 5878 5878 5872 5871 5871 5859 5859 5859 5859 5856 5856 5855 5855 5855 5855 5855 5855 5855 5855 5855 5855 5852 5852 5852 5852 5848 5848 5848 5848 5839 5839 5839 5839 5839 5839 5839 5839 5839 5838 5838 5838 5838 5837 5837 5837 5836 5836 5836 5835 5835 5825 5825 5825 5825 5824 5824 5822 5822 5822 5822 5822 5822 5822 5822 5822 5822 5822 5822 5822 5822 5822 5822 5822 5819 5819 5819 5819 5819 5819 5819 5819 5819 5819 5819 5819 5819 5819 5819 5819 5819 5817 5817 5817 5817 5817 5817 5817 5817 5817 5817 5817 5817 5817 5817 5817 5817 5817 5816 5816 5815 5815 5815 5815 5815 5815 5815 5815 5815 5815 5815 5815 5815 5815 5815 5815 5815 5815 5815 5815 5815 5815 5815 5813 5813 5813 5813 5813 5813 5812 5812 5812 5812 5811 5811 5811 5811 5811 5811 5811 5811 5811 5811 5811 5811 5811 5811 5811 5811 5811 5811 5811 5811 5811 5811 5811 5811 5811 5811 5811 5809 5809 5809 5809 5809 5809 5809 5809 5809 5809 5809 5809 5809 5809 5809 5809 5809 5809 5809 5809 5809 5809 5809 5809 5809 5809 5809 5809 5809 5809 5809 5809 5809 5809 5809 5809 5809 5809 5809 5809 5809 5806 5806 5806 5806 5806 5806 5806 5806 5806 5806 5806 5806 5805 5805 5804 5804 5804 5804 5804 5804 5804 5804 5804 5804 5804 5804 5804 5804 5804 5804 5804 5804 5804 5804 5804 5804 5804 5804 5804 5804 5804 5804 5804 5804 5804 5804 5804 5801 5801 5801 5801 5801 5801 5801 5801 5801 5801 5798 5798 5798 5798 5798 5798 5798 5798 5798 5798 5798 5798 5798 5798 5798 5798 5798 5798 5798 5798 5798 5798 5798 5798 5798 5798 5798 5798 5798 5798 5798 5798 5798 5798 5798 5798 5798 5798 5796 5796 5796 5796 5796 5796 5796 5796 5796 5796 5796 5796 5796 5796 5796 5796 5796 5796 5796 5796 5796 5796 5796 5796 5796 5796 5796 5796 5796 5796 5796 5796 5796 5796 5796 5796 5796 5796 5796 5796 5796 5796 5796 5796 5796 5796 5796 5796 5796 5796 5796 5796 5796 5796 5796 5796 5796 5796 5796 5796 5796 5796 5793 5793 5793 5793 5793 5793 5793 5793 5793 5793 5793 5793 5793 5793 5793 5793 5793 5793 5793 5793 5793 5793 5793 5793 5793 5793 5793 5790 5790 5790 5790 5790 5790 5790 5790 5790 5790 5790 5790 5790 5789 5789 5789 5789 5789 5789 5789 5789 5789 5789 5789 5789 5789 5789 5789 5789 5789 5789 5789 5789 5789 5789 5789 5789 5789 5789 5789 5789 5789 5789 5789 5789 5789 5789 5789 5789 5789 5789 5789 5789 5789 5788 5788 5788 5788 5788 5788 5788 5788 5788 5788 5788 5788 5788 5788 5788 5788 5788 5788 5788 5788 5788 5788 5788 5788 5788 5788 5788 5788 5788 5788 5788 5788 5788 5788 5788 5788 5788 5788 5788 5788 5788 5788 5788 5788 5788 5788 5788 5788 5788 5788 5788 5788 5788 5788 5788 5788 5788 5788 5788 5788 5788 5788 5788 5788 5788 5788 5788 5788 5788 5788 5788 5788 5788 5788 5788 5788 5788 5788 5788 5788 5788 5788 5788 5788 5788 5788 5788 5788 5788 5788 5788 5788 5788 5788 5788 5788 5788 5788 5788 5788 5788 5788 5788 5788 5788 5788 5788 5788 5788 5788 5788 5788 5788 5788 5788 5788 5788 5788 5788 5788 5788 5788 5788 5788 5788 5788 5788 5788 5788 5788 5788 5788 5788 5788 5788 5788 5788 5788 5788 5788 5788 5788 5788 5788 5788 5788 5788 5788 5788 5788 5788 5788 5788 5788 5788 5788 5788 5788 5788 5788 5788 5788 5788 5788 5788 5788 5788 5788 5788 5788 5788 5788 5788 5788 5788 5788 5788 5788 5788 5788 5788 5788 5788 5788 5788 5788 5788 5788 5788 5788 5788 5788 5788 5788 5788 5788 5788 5788 5788 5788 5788 5788 5788 5788 5788 5788 5788 5788 5788 5788 5788 5788 5788 5788 5788 5788 5788 5788 5788 5788 5788 5788 5788 5788 5788 5788 5788 5788 5788 5788 5788 5788 5788 5788 5788 5788 5788 5788 5788 5788 5788 5788 5788 5788 5788 5788 5788 5788 5788 5785 5785 5785 5785 5785 5785 5785 5785 5785 5785 5785 5785 5785 5785 5785 5785 5785 5785 5785 5785 5785 5785 5785 5785 5784 5784 5784 5784 5784 5784 5784 5784 5784 5784 5784 5784 5784 5784 5784 5784 5777 5777 5777 5777 5777 5777 5777 5777 5777 5777 5777 5777 5777 5777 5777 5777 5777 5777 5777 5777 5777 5777 5777 5777 5777 5777 5777 5777 5777 5777 5777 5777 5777 5777 5777 5777 5777 5777 5777 5777 5777 5777 5777 5777 5777 5777 5777 5777 5777 5777 5777 5777 5777 5777 5777 5777 5777 5777 5777 5777 5777 5777 5777 5777 5777 5777 5777 5777 5777 5777 5776 5776 5776 5776 5776 5776 5776 5776 5776 5776 5776 5776 5776 5776 5775 5775 5775 5771 5771 5771 5771 5771 5771 5771 5771 5771 5771 5771 5771 5771 5771 5771 5771 5771 5771 5771 5771 5771 5771 5771 5770 5770 5770 5770 5770 5770 5770 5770 5770 5770 5770 5770 5770 5770 5770 5770 5770 5770 5770 5770 5770 5766 5766 5766 5765 5765 5765 5765 5765 5765 5765 5765 5765 5765 5765 5764 5764 5764 5764 5764 5764 5764 5764 5763 5763 5761 5761 5761 5761 5761 5761 5761 5761 5761 5761 5761 5761 5761 5761 5761 5761 5761 5761 5761 5761 5755 5755 5755 5755 5755 5755 5755 5755 5755 5755 5754 5754 5754 5754 5754 5754 5754 5754 5754 5754 5754 5754 5754 5754 5754 5754 5754 5754 5754 5754 5754 5754 5754 5754 5754 5754 5754 5754 5754 5754 5754 5754 5754 5754 5754 5754 5754 5754 5754 5754 5754 5754 5754 5754 5754 5754 5754 5754 5754 5754 5754 5754 5754 5754 5754 5754 5754 5754 5754 5754 5754 5754 5754 5754 5754 5754 5754 5754 5754 5754 5754 5754 5754 5754 5754 5754 5753 5753 5753 5753 5753 5753 5753 5753 5753 5753 5753 5753 5753 5753 5753 5753 5753 5753 5753 5753 5753 5753 5753 5753 5753 5753 5753 5753 5753 5753 5753 5753 5753 5753 5753 5753 5753 5753 5753 5753 5753 5753 5753 5753 5753 5753 5753 5753 5753 5753 5753 5753 5753 5753 5753 5753 5753 5753 5753 5753 5753 5753 5753 5753 5753 5753 5753 5753 5753 5753 5753 5753 5753 5753 5753 5753 5753 5753 5753 5753 5753 5753 5753 5753 5753 5753 5753 5753 5753 5753 5753 5753 5753 5753 5753 5753 5753 5753 5753 5753 5753 5753 5753 5753 5753 5753 5753 5753 5753 5753 5753 5753 5753 5753 5753 5753 5753 5753 5753 5753 5753 5753 5753 5753 5753 5753 5753 5753 5753 5753 5753 5753 5753 5753 5753 5753 5753 5753 5753 5753 5753 5753 5753 5753 5753 5753 5753 5753 5753 5753 5753 5753 5753 5753 5753 5753 5753 5753 5753 5753 5753 5753 5753 5753 5753 5753 5753 5753 5753 5753 5753 5753 5753 5753 5753 5753 5753 5753 5753 5753 5753 5753 5753 5753 5753 5753 5753 5753 5753 5753 5753 5753 5753 5753 5753 5753 5753 5753 5753 5753 5753 5753 5753 5753 5753 5753 5753 5753 5753 5753 5753 5753 5753 5753 5753 5753 5753 5753 5753 5753 5753 5753 5753 5753 5753 5753 5753 5753 5753 5753 5753 5753 5753 5753 5753 5753 5753 5753 5753 5753 5753 5753 5753 5753 5753 5753 5753 5753 5753 5753 5753 5753 5753 5753 5753 5753 5753 5753 5753 5753 5753 5753 5753 5753 5753 5753 5753 5753 5753 5753 5753 5753 5753 5753 5753 5753 5753 5753 5753 5753 5753 5753 5753 5753 5753 5753 5753 5753 5753 5753 5753 5753 5753 5753 5753 5753 5753 5753 5753 5753 5753 5753 5753 5753 5753 5753 5753 5753 5753 5752 5752 5752 5752 5752 5752 5752 5752 5752 5752 5752 5752 5752 5752 5752 5752 5752 5752 5752 5752 5752 5752 5752 5752 5752 5752 5752 5752 5752 5752 5752 5752 5752 5752 5752 5752 5752 5752 5752 5752 5752 5752 5752 5752 5752 5752 5752 5752 5752 5752 5752 5752 5752 5752 5752 5752 5752 5752 5752 5752 5752 5752 5752 5752 5752 5752 5752 5752 5752 5752 5752 5752 5752 5752 5752 5752 5752 5752 5752 5752 5752 5752 5752 5752 5752 5752 5752 5752 5752 5752 5752 5752 5752 5752 5752 5752 5752 5752 5752 5752 5752 5752 5752 5752 5752 5752 5752 5752 5752 5752 5752 5752 5752 5752 5752 5752 5752 5752 5752 5752 5752 5752 5752 5752 5752 5752 5752 5752 5752 5752 5752 5752 5752 5752 5752 5752 5752 5752 5752 5752 5752 5752 5752 5752 5752 5752 5752 5752 5752 5752 5752 5752 5752 5752 5752 5752 5752 5752 5752 5752 5752 5752 5752 5752 5752 5752 5752 5752 5752 5752 5752 5752 5752 5752 5752 5752 5752 5752 5752 5752 5752 5752 5752 5752 5752 5752 5752 5752 5752 5752 5752 5752 5752 5752 5752 5752 5752 5752 5752 5752 5752 5752 5752 5752 5752 5752 5752 5752 5752 5752 5752 5752 5752 5752 5752 5752 5752 5752 5752 5752 5752 5752 5752 5752 5752 5752 5752 5752 5752 5752 5752 5752 5752 5752 5752 5752 5752 5752 5752 5752 5752 5752 5752 5752 5752 5752 5752 5752 5752 5752 5752 5752 5752 5752 5752 5752 5752 5752 5752 5752 5752 5752 5752 5752 5752 5752 5752 5752 5752 5752 5752 5752 5752 5752 5752 5752 5752 5752 5752 5752 5752 5752 5752 5752 5752 5752 5752 5752 5752 5752 5752 5752 5752 5752 5752 5752 5752 5752 5752 5752 5752 5752 5752 5752 5752 5752 5752 5752 5752 5752 5752 5752 5752 5752 5752 5752 5752 5752 5752 5752 5752 5752 5752 5752 5752 5752 5752 5752 5752 5752 5752 5752 5752 5752 5752 5752 5752 5752 5752 5752 5752 5752 5752 5752 5752 5752 5752 5752 5752 5752 5752 5752 5752 5752 5752 5752 5752 5752 5752 5752 5752 5752 5752 5752 5752 5752 5752 5752 5752 5752 5752 5752 5752 5752 5752 5752 5752 5752 5752 5752 5752 5752 5752 5752 5752 5752 5752 5752 5752 5752 5752 5752 5752 5752 5752 5752 5752 5752 5752 5752 5752 5752 5752 5752 5752 5752 5752 5752 5752 5752 5752 5752 5752 5752 5752 5752 5752 5752 5752 5752 5752 5752 5752 5752 5752 5752 5752 5752 5752 5752 5752 5752 5752 5752 5752 5752 5752 5752 5752 5752 5752 5752 5752 5752 5752 5752 5752 5752 5752 5752 5752 5752 5752 5752 5752 5752 5752 5752 5752 5752 5752 5752 5752 5752 5752 5752 5752 5752 5752 5752 5752 5752 5752 5752 5752 5752 5752 5752 5752 5752 5752 5752 5752 5752 5752 5752 5752 5752 5752 5752 5752 5752 5752 5752 5752 5752 5752 5752 5752 5752 5752 
17275 16929 16258 15785 15282 14874 14628 14239 13689 13490 13198 12639 12243 11927 11783 11545 11263 10986 10811 10648 10242 10242 9974 9817 9641 9329 9298 9150 8999 8896 8541 8453 8348 8180 7945 7861 7738 7622 7442 7284 7166 7016 6879 6724 6672 6612 6526 6432 6304 6212 6124 6014 5923 5844 5671 5569 5491 5439 5334 5243 5220 5142 5055 4987 4883 4826 4680 4634 4620 4581 4509 4426 4370 4275 4210 4139 4035 3959 3908 3841 3759 3734 3663 3611 3579 3539 3516 3454 3424 3359 3323 3302 3265 3247 3214 3169 3142 3119 3042 3039 2994 2994 2962 2936 2933 2904 2872 2838 2808 2786 2772 2744 2580 2559 2525 2516 2444 2425 2360 2349 2329 2294 2283 2259 2244 2233 2219 2205 2178 2158 2132 2118 2087 2075 2042 2038 2025 1999 1990 1964 1951 1939 1920 1895 1873 1864 1849 1842 1824 1824 1814 1803 1769 1715 1709 1706 1701 1699 1688 1675 1669 1662 1639 1637 1512 1512 1488 1476 1462 1437 1403 1394 1391 1382 1365 1365 1348 1335 1322 1315 1298 1269 1263 1172 1157 1157 1153 1148 1132 1123 1115 1097 1089 1068 1051 1046 1035 1028 1018 1008 1002 987 973 973 968 965 960 956 947 941 931 924 900 900 897 836 833 814 814 804 796 793 783 780 768 758 749 739 736 735 728 728 727 721 721 721 717 717 712 712 711 699 699 696 694 691 691 688 685 682 680 676 659 653 652 651 651 647 645 641 639 639 637 637 635 635 633 633 630 629 628 624 606 552 512 511 511 496 490 490 490 490 490 490 489 487 487 466 466 466 465 463 463 455 455 452 439 439 439 439 434 434 427 418 418 411 411 407 397 397 389 378 374 374 361 361 358 358 358 357 357 357 357 351 347 347 344 344 344 344 343 329 324 320 317 317 317 315 315 314 314 314 314 313 313 312 312 312 312 311 308 298 298 287 276 276 276 275 275 275 273 271 269 268 268 267 247 247 246 206 205 188 183 168 165 165 156 156 156 156 150 138 138 138 112 112 112 112 112 108 96 96 86 76 76 64 64 64 61 55 55 49 46 46 46 46 46 46 46 46 46 46 46 46 46 46 45 45 45 45 45 45 45 45 45 45 45 45 45 45 45 45 45 45 45 45 45 45 45 45 45 45 45 45 43 43 43 43 43 43 27 27 27 27 27 27 27 27 27 27 27 17 17 17 17 17 17 17 17 17 17 17 17 17 17 17 17 17 16 16 16 16 16 16 16 15 14 14 14 14 14 14 14 14 14 14 14 14 14 14 1 1 1 1 1 1 0 0 0 0 0 0 0 0 0 0 0 0 0 0 0 0 0 0 0 0 0 0 0 0 0 0 0 0 0 0 0 0 0 0 0 0 0 0 0 0 0 0 0 0 0 0 0 0 0 0 0 0 0 0 0 0 0 0 0 0 0 0 0 0 0 0 0 0 0 0 0 0 0 0 0 0 0 0 0 0 0 0 0 0 0 0 0 0 0 0 0 0 0 0 0 0 0 0 0 0 0 0 0 0 0 0 0 0 0 0 0 0 0 0 0 0 0 0 0 0 0 0 0 0 0 0 0 0 0 0 0 0 0 0 0 0 0 0 0 0 0 0 0 0 0 0 0 0 0 0 0 0 0 0 0 0 0 0 0 0 0 0 0 0 0 0 0 0 0 0 0 0 0 0 0 0 0 0 0 0 0 0 0 0 0 0 0 0 0 0 0 0 0 0 0 0 0 0 0 0 0 0 0 0 0 0 0 0 0 0 0 0 0 0 0 0 0 0 0 0 0 0 0 0 0 0 0 0 0 0 0 0 0 0 0 0 0 0 0 0 0 0 0 0 0 0 0 0 0 0 0 0 0 0 0 0 0 0 0 0 0 0 0 0 0 0 0 0 0 0 0 0 0 0 0 0 0 0 0 0 0 0 0 0 0 0 0 0 0 0 0 0 0 0 0 0 0 0 0 0 0 0 0 0 0 0 0 0 0 0 0 0 0 0 0 0 0 0 0 0 0 0 0 0 0 0 0 0 0 0 0 0 0 0 0 0 0 0 0 0 0 0 0 0 0 0 0 0 0 0 0 0 0 0 0 0 0 0 0 0 0 0 0 0 0 0 0 0 0 0 0 0 0 0 0 0 0 0 0 0 0 0 0 0 0 0 0 0 0 0 0 0 0 0 0 0 0 0 0 0 0 0 0 0 0 0 0 0 0 0 0 0 0 0 0 0 0 0 0 0 0 0 0 0 0 0 0 0 0 0 0 0 0 0 0 0 0 0 0 0 0 0 0 0 0 0 0 0 0 0 0 0 0 0 0 0 0 0 0 0 0 0 0 0 0 0 0 0 0 0 0 0 0 0 0 0 0 0 0 0 0 0 0 0 0 0 0 0 0 0 0 0 0 0 0 0 0 0 0 0 0 0 0 0 0 0 0 0 0 0 0 0 0 0 0 0 0 0 0 0 0 0 0 0 0 0 0 0 0 0 0 0 0 0 0 0 0 0 0 0 0 0 0 0 0 0 0 0 0 0 0 0 0 0 0 0 0 0 0 0 0 0 0 0 0 0 0 0 0 0 0 0 0 0 0 0 0 0 0 0 0 0 0 0 0 0 0 0 0 0 0 0 0 0 0 0 0 0 0 0 0 0 0 0 0 0 0 0 0 0 0 0 0 0 0 0 0 0 0 0 0 0 0 0 0 0 0 0 0 0 0 0 0 0 0 0 0 0 0 0 0 0 0 0 0 0 0 0 0 0 0 0 0 0 0 0 0 0 0 0 0 0 0 0 0 0 0 0 0 0 0 0 0 0 0 0 0 0 0 0 0 0 0 0 0 0 0 0 0 0 0 0 0 0 0 0 0 0 0 0 0 0 0 0 0 0 0 0 0 0 0 0 0 0 0 0 0 0 0 0 0 0 0 0 0 0 0 0 0 0 0 0 0 0 0 0 0 0 0 0 0 0 0 0 0 0 0 0 0 0 0 0 0 0 0 0 0 0 0 0 0 0 0 0 0 0 0 0 0 0 0 0 0 0 0 0 0 0 0 0 0 0 0 0 0 0 0 0 0 0 0 0 0 0 0 0 0 0 0 0 0 0 0 0 0 0 0 0 0 0 0 0 0 0 0 0 0 0 0 0 0 0 0 0 0 0 0 0 0 0 0 0 0 0 0 0 0 0 0 0 0 0 0 0 0 0 0 0 0 0 0 0 0 0 0 0 0 0 0 0 0 0 0 0 0 0 0 0 0 0 0 0 0 0 0 0 0 0 0 0 0 0 0 0 0 0 0 0 0 0 0 0 0 0 0 0 0 0 0 0 0 0 0 0 0 0 0 0 0 0 0 0 0 0 0 0 0 0 0 0 0 0 0 0 0 0 0 0 0 0 0 0 0 0 0 0 0 0 0 0 0 0 0 0 0 0 0 0 0 0 0 0 0 0 0 0 0 0 0 0 0 0 0 0 0 0 0 0 0 0 0 0 0 0 0 0 0 0 0 0 0 0 0 0 0 0 0 0 0 0 0 0 0 0 0 0 0 0 0 0 0 0 0 0 0 0 0 0 0 0 0 0 0 0 0 0 0 0 0 0 0 0 0 0 0 0 0 0 0 0 0 0 0 0 0 0 0 0 0 0 0 0 0 0 0 0 0 0 0 0 0 0 0 0 0 0 0 0 0 0 0 0 0 0 0 0 0 0 0 0 0 0 0 0 0 0 0 0 0 0 0 0 0 0 0 0 0 0 0 0 0 0 0 0 0 0 0 0 0 0 0 0 0 0 0 0 0 0 0 0 0 0 0 0 0 0 0 0 0 0 0 0 0 0 0 0 0 0 0 0 0 0 0 0 0 0 0 0 0 0 0 0 0 0 0 0 0 0 0 0 0 0 0 0 0 0 0 0 0 0 0 0 0 0 0 0 0 0 0 0 0 0 0 0 0 0 0 0 0 0 0 0 0 0 0 0 0 0 0 0 0 0 0 0 0 0 0 0 0 0 0 0 0 0 0 0 0 0 0 0 0 0 0 0 0 0 0 0 0 0 0 0 0 0 0 0 0 0 0 0 0 0 0 0 0 0 0 0 0 0 0 0 0 0 0 0 0 0 0 0 0 0 0 0 0 0 0 0 0 0 0 0 0 0 0 0 0 0 0 0 0 0 0 0 0 0 0 0 0 0 0 0 0 0 0 0 0 0 0 0 0 0 0 0 0 0 0 0 0 0 0 0 0 0 0 0 0 0 0 0 0 0 0 0 0 0 0 0 0 0 0 0 0 0 0 0 0 0 0 0 0 0 0 0 0 0 0 0 0 0 0 0 0 0 0 0 0 0 0 0 0 0 0 0 0 0 0 0 0 0 0 0 0 0 0 0 0 0 0 0 0 0 0 0 0 0 0 0 0 0 0 0 0 0 0 0 0 0 0 0 0 0 0 0 0 0 0 0 0 0 0 0 0 0 0 0 0 0 0 0 0 0 0 0 0 0 0 0 0 0 0 0 0 0 0 0 0 0 0 0 0 0 0 0 0 0 0 0 0 0 0 0 0 0 0 0 0 0 0 0 0 0 0 0 0 0 0 0 0 0 0 0 0 0 0 0 0 0 0 0 0 0 0 0 0 0 0 0 0 0 0 0 0 0 0 0 0 0 0 0 0 0 0 0 0 0 0 0 0 0 0 0 0 0 0 0 0 0 0 0 0 0 0 0 0 0 0 0 0 0 0 0 0 0 0 0 0 0 0 0 0 0 0 0 0 0 0 0 0 0 0 0 0 0 0 0 0 0 0 0 0 0 0 0 0 0 0 0 0 0 0 0 0 0 0 0 0 0 0 0 0 0 0 0 0 0 0 0 0 0 0 0 0 0 0 0 0 0 0 0 0 0 0 0 0 0 0 0 0 0 0 0 0 0 0 0 0 0 0 0 0 0 0 0 0 0 0 0 0 0 0 0 0 0 0 0 0 0 0 0 0 0 0 0 0 0 0 0 0 0 0 0 0 0 0 0 0 0 0 0 0 0 0 0 0 0 0 0 0 0 0 0 0 0 0 0 0 0 0 0 0 0 0 0 0 0 0 0 0 0 0 0 0 0 0 0 0 0 0 0 0 0 0 0 0 0 0 0 0 0 0 0 0 0 0 0 0 0 0 0 0 0 0 0 0 0 0 0 0 0 0 0 0 0 0 0 0 0 0 0 0 0 0 0 0 0 0 0 0 0 0 0 0 0 0 0 0 0 0 0 0 0 0 0 0 0 0 0 0 0 0 0 0 0 0 0 0 0 0 0 0 0 0 0 0 0 0 0 0 0 0 0 0 0 0 0 0 0 0 0 0 0 0 0 0 0 0 0 0 0 0 0 0 0 0 0 0 0 0 0 0 0 0 0 0 0 0 0 0 0 0 0 0 0 0 0 0 0 0 0 0 0 0 0 0 0 0 0 0 0 0 0 0 0 0 0 0 0 0 0 0 0 0 0 0 0 0 0 0 0 0 0 0 0 0 0 0 0 0 0 0 0 0 0 0 0 0 0 0 0 0 0 0 0 0 0 0 0 0 0 0 0 0 0 0 0 0 0 0 0 0 0 0 0 0 0 0 0 0 0 0 0 0 0 0 0 0 0 0 0 0 0 0 0 0 0 0 0 0 0 0 0 0 0 0 0 0 0 0 0 0 0 0 0 0 0 0 0 0 0 0 0 0 0 0 0 0 0 0 0 0 0 0 0 0 0 0 0 0 0 0 0 0 0 0 0 0 0 0 0 0 0 0 0 0 0 0 0 0 0 0 0 0 0 0 0 0 0 0 0 0 0 0 0 0 0 0 0 0 0 0 0 0 0 0 0 0 0 0 0 0 0 0 0 0 0 0 0 0 0 0 0 0 0 0 0 0 0 0 0 0 0 0 0 0 0 0 0 0 0 0 0 0 0 0 0 0 0 0 0 0 0 0 0 0 0 0 0 0 0 0 0 0 0 0 0 0 0 0 0 0 0 0 0 0 0 0 0 0 0 0 0 0 0 0 0 0 0 0 0 0 0 0 0 0 0 0 0 0 0 0 0 0 0 0 0 0 0 0 0 0 0 0 0 0 0 0 0 0 0 0 0 0 0 0 0 0 0 0 0 0 0 0 0 0 0 0 0 0 0 0 0 0 0 0 0 0 0 0 0 0 0 0 0 0 0 0 0 0 0 0 0 0 0 0 0 0 0 0 0 0 0 0 0 0 0 0 0 0 0 0 0 0 0 0 0 0 0 0 0 0 0 0 0 0 0 0 0 0 0 0 0 0 0 0 0 0 0 0 0 0 0 0 0 0 0 0 0 0 0 0 0 0 0 0 0 0 0 0 0 0 0 0 0 0 0 0 0 0 0 0 0 0 0 0 0 0 0 0 0 0 0 0 0 0 0 0 0 0 0 0 0 0 0 0 0 0 0 0 0 0 0 0 0 0 0 0 0 0 0 0 0 0 0 0 0 0 0 0 0 0 0 0 0 0 0 0 0 0 0 0 0 0 0 0 0 0 0 0 0 0 0 0 0 0 0 0 0 0 